DATASET = "thpack3";
INSTANCE = "014";

WIDTH = 233;
HEIGHT = 220;
LENGTH = 587;

NO_OF_SHAPES = 8;
size = [|
  68,48,31 |
  104,80,63 |
  82,46,21 |
  114,78,60 |
  90,74,66 |
  112,54,36 |
  71,64,54 |
  74,53,33 |
|];

verticality = [|
  0,1,1 |
  1,1,1 |
  0,0,1 |
  1,1,1 |
  1,1,1 |
  0,1,1 |
  1,1,1 |
  0,1,1 |
|];

box_count = [
  12,
  14,
  13,
  14,
  12,
  8,
  17,
  14,
];
